
(set-option :produce-models true)
(set-option :inline-size-limit 10000)

(declare-const var0 String)

(push 1)
(assert (str.in.re var0 (re.* (re.range "\x01" "\xff"))))
(assert (str.in.re var0 (re.++ (re.++ re.begin-anchor (re.++ (re.union (re.range "a" "z") (re.range "A" "Z")) (re.++ (str.to.re ":") (re.++ (str.to.re "(") (re.++ (re.+ ((_ re.capture 1) (re.union (re.union (re.range "a" "z") (re.union (re.range "A" "Z") (re.union (re.range "0" "9") (str.to.re "_")))) (re.union (re.range "\u{0621}" "\u{064a}") (re.union (str.to.re "\u{20}") (re.union (str.to.re "\u{0b}") (re.union (str.to.re "\u{0a}") (re.union (str.to.re "\u{0d}") (re.union (str.to.re "\u{09}") (str.to.re "\u{0c}")))))))))) (re.++ (re.+ (str.to.re ")")) (re.++ (re.+ ((_ re.capture 2) (re.union (re.union (re.range "a" "z") (re.union (re.range "A" "Z") (re.union (re.range "0" "9") (str.to.re "_")))) (re.union (re.range "\u{0621}" "\u{064a}") (re.union (str.to.re "\u{20}") (re.union (str.to.re "\u{0b}") (re.union (str.to.re "\u{0a}") (re.union (str.to.re "\u{0d}") (re.union (str.to.re "\u{09}") (str.to.re "\u{0c}")))))))))) ((_ re.capture 3) (re.union (re.union (re.union (re.union (re.union (re.++ (re.range "\x01" "\xff") (re.++ (str.to.re "j") (re.++ (str.to.re "p") (str.to.re "g")))) (re.++ (re.range "\x01" "\xff") (re.++ (str.to.re "J") (re.++ (str.to.re "P") (str.to.re "G"))))) (re.++ (re.range "\x01" "\xff") (re.++ (str.to.re "g") (re.++ (str.to.re "i") (str.to.re "f"))))) (re.++ (re.range "\x01" "\xff") (re.++ (str.to.re "G") (re.++ (str.to.re "I") (str.to.re "F"))))) (re.++ (re.range "\x01" "\xff") (re.++ (str.to.re "B") (re.++ (str.to.re "N") (str.to.re "G"))))) (re.++ (re.range "\x01" "\xff") (re.++ (str.to.re "b") (re.++ (str.to.re "n") (str.to.re "g"))))))))))))) re.end-anchor)))	; match!==null
(assert (not (str.in.re ((_ str.extract 1) var0 (re.++ (re.++ re.begin-anchor (re.++ (re.union (re.range "a" "z") (re.range "A" "Z")) (re.++ (str.to.re ":") (re.++ (str.to.re "(") (re.++ (re.+ ((_ re.capture 1) (re.union (re.union (re.range "a" "z") (re.union (re.range "A" "Z") (re.union (re.range "0" "9") (str.to.re "_")))) (re.union (re.range "\u{0621}" "\u{064a}") (re.union (str.to.re "\u{20}") (re.union (str.to.re "\u{0b}") (re.union (str.to.re "\u{0a}") (re.union (str.to.re "\u{0d}") (re.union (str.to.re "\u{09}") (str.to.re "\u{0c}")))))))))) (re.++ (re.+ (str.to.re ")")) (re.++ (re.+ ((_ re.capture 2) (re.union (re.union (re.range "a" "z") (re.union (re.range "A" "Z") (re.union (re.range "0" "9") (str.to.re "_")))) (re.union (re.range "\u{0621}" "\u{064a}") (re.union (str.to.re "\u{20}") (re.union (str.to.re "\u{0b}") (re.union (str.to.re "\u{0a}") (re.union (str.to.re "\u{0d}") (re.union (str.to.re "\u{09}") (str.to.re "\u{0c}")))))))))) ((_ re.capture 3) (re.union (re.union (re.union (re.union (re.union (re.++ (re.range "\x01" "\xff") (re.++ (str.to.re "j") (re.++ (str.to.re "p") (str.to.re "g")))) (re.++ (re.range "\x01" "\xff") (re.++ (str.to.re "J") (re.++ (str.to.re "P") (str.to.re "G"))))) (re.++ (re.range "\x01" "\xff") (re.++ (str.to.re "g") (re.++ (str.to.re "i") (str.to.re "f"))))) (re.++ (re.range "\x01" "\xff") (re.++ (str.to.re "G") (re.++ (str.to.re "I") (str.to.re "F"))))) (re.++ (re.range "\x01" "\xff") (re.++ (str.to.re "B") (re.++ (str.to.re "N") (str.to.re "G"))))) (re.++ (re.range "\x01" "\xff") (re.++ (str.to.re "b") (re.++ (str.to.re "n") (str.to.re "g"))))))))))))) re.end-anchor)) (str.to.re "\x00"))))
;match[1]!==null
(assert (str.in.re ((_ str.extract 1) var0 (re.++ (re.++ re.begin-anchor (re.++ (re.union (re.range "a" "z") (re.range "A" "Z")) (re.++ (str.to.re ":") (re.++ (str.to.re "(") (re.++ (re.+ ((_ re.capture 1) (re.union (re.union (re.range "a" "z") (re.union (re.range "A" "Z") (re.union (re.range "0" "9") (str.to.re "_")))) (re.union (re.range "\u{0621}" "\u{064a}") (re.union (str.to.re "\u{20}") (re.union (str.to.re "\u{0b}") (re.union (str.to.re "\u{0a}") (re.union (str.to.re "\u{0d}") (re.union (str.to.re "\u{09}") (str.to.re "\u{0c}")))))))))) (re.++ (re.+ (str.to.re ")")) (re.++ (re.+ ((_ re.capture 2) (re.union (re.union (re.range "a" "z") (re.union (re.range "A" "Z") (re.union (re.range "0" "9") (str.to.re "_")))) (re.union (re.range "\u{0621}" "\u{064a}") (re.union (str.to.re "\u{20}") (re.union (str.to.re "\u{0b}") (re.union (str.to.re "\u{0a}") (re.union (str.to.re "\u{0d}") (re.union (str.to.re "\u{09}") (str.to.re "\u{0c}")))))))))) ((_ re.capture 3) (re.union (re.union (re.union (re.union (re.union (re.++ (re.range "\x01" "\xff") (re.++ (str.to.re "j") (re.++ (str.to.re "p") (str.to.re "g")))) (re.++ (re.range "\x01" "\xff") (re.++ (str.to.re "J") (re.++ (str.to.re "P") (str.to.re "G"))))) (re.++ (re.range "\x01" "\xff") (re.++ (str.to.re "g") (re.++ (str.to.re "i") (str.to.re "f"))))) (re.++ (re.range "\x01" "\xff") (re.++ (str.to.re "G") (re.++ (str.to.re "I") (str.to.re "F"))))) (re.++ (re.range "\x01" "\xff") (re.++ (str.to.re "B") (re.++ (str.to.re "N") (str.to.re "G"))))) (re.++ (re.range "\x01" "\xff") (re.++ (str.to.re "b") (re.++ (str.to.re "n") (str.to.re "g"))))))))))))) re.end-anchor)) (re.++ re.all(re.+ (re.range "a" "z")) re.all) ))
;/[a-z]+/.test(match[1]) == true
(check-sat)
(get-model)
(pop 1)
(push 1)
(assert (str.in.re var0 (re.* (re.range "\x01" "\xff"))))
(assert (str.in.re var0 (re.++ (re.++ re.begin-anchor (re.++ (re.union (re.range "a" "z") (re.range "A" "Z")) (re.++ (str.to.re ":") (re.++ (str.to.re "(") (re.++ (re.+ ((_ re.capture 1) (re.union (re.union (re.range "a" "z") (re.union (re.range "A" "Z") (re.union (re.range "0" "9") (str.to.re "_")))) (re.union (re.range "\u{0621}" "\u{064a}") (re.union (str.to.re "\u{20}") (re.union (str.to.re "\u{0b}") (re.union (str.to.re "\u{0a}") (re.union (str.to.re "\u{0d}") (re.union (str.to.re "\u{09}") (str.to.re "\u{0c}")))))))))) (re.++ (re.+ (str.to.re ")")) (re.++ (re.+ ((_ re.capture 2) (re.union (re.union (re.range "a" "z") (re.union (re.range "A" "Z") (re.union (re.range "0" "9") (str.to.re "_")))) (re.union (re.range "\u{0621}" "\u{064a}") (re.union (str.to.re "\u{20}") (re.union (str.to.re "\u{0b}") (re.union (str.to.re "\u{0a}") (re.union (str.to.re "\u{0d}") (re.union (str.to.re "\u{09}") (str.to.re "\u{0c}")))))))))) ((_ re.capture 3) (re.union (re.union (re.union (re.union (re.union (re.++ (re.range "\x01" "\xff") (re.++ (str.to.re "j") (re.++ (str.to.re "p") (str.to.re "g")))) (re.++ (re.range "\x01" "\xff") (re.++ (str.to.re "J") (re.++ (str.to.re "P") (str.to.re "G"))))) (re.++ (re.range "\x01" "\xff") (re.++ (str.to.re "g") (re.++ (str.to.re "i") (str.to.re "f"))))) (re.++ (re.range "\x01" "\xff") (re.++ (str.to.re "G") (re.++ (str.to.re "I") (str.to.re "F"))))) (re.++ (re.range "\x01" "\xff") (re.++ (str.to.re "B") (re.++ (str.to.re "N") (str.to.re "G"))))) (re.++ (re.range "\x01" "\xff") (re.++ (str.to.re "b") (re.++ (str.to.re "n") (str.to.re "g"))))))))))))) re.end-anchor)))	; match!==null
(assert (not (str.in.re ((_ str.extract 1) var0 (re.++ (re.++ re.begin-anchor (re.++ (re.union (re.range "a" "z") (re.range "A" "Z")) (re.++ (str.to.re ":") (re.++ (str.to.re "(") (re.++ (re.+ ((_ re.capture 1) (re.union (re.union (re.range "a" "z") (re.union (re.range "A" "Z") (re.union (re.range "0" "9") (str.to.re "_")))) (re.union (re.range "\u{0621}" "\u{064a}") (re.union (str.to.re "\u{20}") (re.union (str.to.re "\u{0b}") (re.union (str.to.re "\u{0a}") (re.union (str.to.re "\u{0d}") (re.union (str.to.re "\u{09}") (str.to.re "\u{0c}")))))))))) (re.++ (re.+ (str.to.re ")")) (re.++ (re.+ ((_ re.capture 2) (re.union (re.union (re.range "a" "z") (re.union (re.range "A" "Z") (re.union (re.range "0" "9") (str.to.re "_")))) (re.union (re.range "\u{0621}" "\u{064a}") (re.union (str.to.re "\u{20}") (re.union (str.to.re "\u{0b}") (re.union (str.to.re "\u{0a}") (re.union (str.to.re "\u{0d}") (re.union (str.to.re "\u{09}") (str.to.re "\u{0c}")))))))))) ((_ re.capture 3) (re.union (re.union (re.union (re.union (re.union (re.++ (re.range "\x01" "\xff") (re.++ (str.to.re "j") (re.++ (str.to.re "p") (str.to.re "g")))) (re.++ (re.range "\x01" "\xff") (re.++ (str.to.re "J") (re.++ (str.to.re "P") (str.to.re "G"))))) (re.++ (re.range "\x01" "\xff") (re.++ (str.to.re "g") (re.++ (str.to.re "i") (str.to.re "f"))))) (re.++ (re.range "\x01" "\xff") (re.++ (str.to.re "G") (re.++ (str.to.re "I") (str.to.re "F"))))) (re.++ (re.range "\x01" "\xff") (re.++ (str.to.re "B") (re.++ (str.to.re "N") (str.to.re "G"))))) (re.++ (re.range "\x01" "\xff") (re.++ (str.to.re "b") (re.++ (str.to.re "n") (str.to.re "g"))))))))))))) re.end-anchor)) (str.to.re "\x00"))))	
;match[1]!==null
(assert (not (str.in.re ((_ str.extract 1) var0 (re.++ (re.++ re.begin-anchor (re.++ (re.union (re.range "a" "z") (re.range "A" "Z")) (re.++ (str.to.re ":") (re.++ (str.to.re "(") (re.++ (re.+ ((_ re.capture 1) (re.union (re.union (re.range "a" "z") (re.union (re.range "A" "Z") (re.union (re.range "0" "9") (str.to.re "_")))) (re.union (re.range "\u{0621}" "\u{064a}") (re.union (str.to.re "\u{20}") (re.union (str.to.re "\u{0b}") (re.union (str.to.re "\u{0a}") (re.union (str.to.re "\u{0d}") (re.union (str.to.re "\u{09}") (str.to.re "\u{0c}")))))))))) (re.++ (re.+ (str.to.re ")")) (re.++ (re.+ ((_ re.capture 2) (re.union (re.union (re.range "a" "z") (re.union (re.range "A" "Z") (re.union (re.range "0" "9") (str.to.re "_")))) (re.union (re.range "\u{0621}" "\u{064a}") (re.union (str.to.re "\u{20}") (re.union (str.to.re "\u{0b}") (re.union (str.to.re "\u{0a}") (re.union (str.to.re "\u{0d}") (re.union (str.to.re "\u{09}") (str.to.re "\u{0c}")))))))))) ((_ re.capture 3) (re.union (re.union (re.union (re.union (re.union (re.++ (re.range "\x01" "\xff") (re.++ (str.to.re "j") (re.++ (str.to.re "p") (str.to.re "g")))) (re.++ (re.range "\x01" "\xff") (re.++ (str.to.re "J") (re.++ (str.to.re "P") (str.to.re "G"))))) (re.++ (re.range "\x01" "\xff") (re.++ (str.to.re "g") (re.++ (str.to.re "i") (str.to.re "f"))))) (re.++ (re.range "\x01" "\xff") (re.++ (str.to.re "G") (re.++ (str.to.re "I") (str.to.re "F"))))) (re.++ (re.range "\x01" "\xff") (re.++ (str.to.re "B") (re.++ (str.to.re "N") (str.to.re "G"))))) (re.++ (re.range "\x01" "\xff") (re.++ (str.to.re "b") (re.++ (str.to.re "n") (str.to.re "g"))))))))))))) re.end-anchor)) (re.++ re.all(re.+ (re.range "a" "z")) re.all) )))
;/[a-z]+/.test(match[1]) == false	
(check-sat)
(get-model)
(pop 1)
(push 1)
(assert (str.in.re var0 (re.* (re.range "\x01" "\xff"))))
(assert (str.in.re var0 (re.++ (re.++ re.begin-anchor (re.++ (re.union (re.range "a" "z") (re.range "A" "Z")) (re.++ (str.to.re ":") (re.++ (str.to.re "(") (re.++ (re.+ ((_ re.capture 1) (re.union (re.union (re.range "a" "z") (re.union (re.range "A" "Z") (re.union (re.range "0" "9") (str.to.re "_")))) (re.union (re.range "\u{0621}" "\u{064a}") (re.union (str.to.re "\u{20}") (re.union (str.to.re "\u{0b}") (re.union (str.to.re "\u{0a}") (re.union (str.to.re "\u{0d}") (re.union (str.to.re "\u{09}") (str.to.re "\u{0c}")))))))))) (re.++ (re.+ (str.to.re ")")) (re.++ (re.+ ((_ re.capture 2) (re.union (re.union (re.range "a" "z") (re.union (re.range "A" "Z") (re.union (re.range "0" "9") (str.to.re "_")))) (re.union (re.range "\u{0621}" "\u{064a}") (re.union (str.to.re "\u{20}") (re.union (str.to.re "\u{0b}") (re.union (str.to.re "\u{0a}") (re.union (str.to.re "\u{0d}") (re.union (str.to.re "\u{09}") (str.to.re "\u{0c}")))))))))) ((_ re.capture 3) (re.union (re.union (re.union (re.union (re.union (re.++ (re.range "\x01" "\xff") (re.++ (str.to.re "j") (re.++ (str.to.re "p") (str.to.re "g")))) (re.++ (re.range "\x01" "\xff") (re.++ (str.to.re "J") (re.++ (str.to.re "P") (str.to.re "G"))))) (re.++ (re.range "\x01" "\xff") (re.++ (str.to.re "g") (re.++ (str.to.re "i") (str.to.re "f"))))) (re.++ (re.range "\x01" "\xff") (re.++ (str.to.re "G") (re.++ (str.to.re "I") (str.to.re "F"))))) (re.++ (re.range "\x01" "\xff") (re.++ (str.to.re "B") (re.++ (str.to.re "N") (str.to.re "G"))))) (re.++ (re.range "\x01" "\xff") (re.++ (str.to.re "b") (re.++ (str.to.re "n") (str.to.re "g"))))))))))))) re.end-anchor)))	; match!==null
(assert (str.in.re ((_ str.extract 1) var0 (re.++ (re.++ re.begin-anchor (re.++ (re.union (re.range "a" "z") (re.range "A" "Z")) (re.++ (str.to.re ":") (re.++ (str.to.re "(") (re.++ (re.+ ((_ re.capture 1) (re.union (re.union (re.range "a" "z") (re.union (re.range "A" "Z") (re.union (re.range "0" "9") (str.to.re "_")))) (re.union (re.range "\u{0621}" "\u{064a}") (re.union (str.to.re "\u{20}") (re.union (str.to.re "\u{0b}") (re.union (str.to.re "\u{0a}") (re.union (str.to.re "\u{0d}") (re.union (str.to.re "\u{09}") (str.to.re "\u{0c}")))))))))) (re.++ (re.+ (str.to.re ")")) (re.++ (re.+ ((_ re.capture 2) (re.union (re.union (re.range "a" "z") (re.union (re.range "A" "Z") (re.union (re.range "0" "9") (str.to.re "_")))) (re.union (re.range "\u{0621}" "\u{064a}") (re.union (str.to.re "\u{20}") (re.union (str.to.re "\u{0b}") (re.union (str.to.re "\u{0a}") (re.union (str.to.re "\u{0d}") (re.union (str.to.re "\u{09}") (str.to.re "\u{0c}")))))))))) ((_ re.capture 3) (re.union (re.union (re.union (re.union (re.union (re.++ (re.range "\x01" "\xff") (re.++ (str.to.re "j") (re.++ (str.to.re "p") (str.to.re "g")))) (re.++ (re.range "\x01" "\xff") (re.++ (str.to.re "J") (re.++ (str.to.re "P") (str.to.re "G"))))) (re.++ (re.range "\x01" "\xff") (re.++ (str.to.re "g") (re.++ (str.to.re "i") (str.to.re "f"))))) (re.++ (re.range "\x01" "\xff") (re.++ (str.to.re "G") (re.++ (str.to.re "I") (str.to.re "F"))))) (re.++ (re.range "\x01" "\xff") (re.++ (str.to.re "B") (re.++ (str.to.re "N") (str.to.re "G"))))) (re.++ (re.range "\x01" "\xff") (re.++ (str.to.re "b") (re.++ (str.to.re "n") (str.to.re "g"))))))))))))) re.end-anchor)) (str.to.re "\x00")))
;match[1]==null
(check-sat)
(get-model)
(pop 1)
(push 1)
(assert (str.in.re var0 (re.* (re.range "\x01" "\xff"))))
(assert (not (str.in.re var0 (re.++ (re.++ re.begin-anchor (re.++ (re.union (re.range "a" "z") (re.range "A" "Z")) (re.++ (str.to.re ":") (re.++ (str.to.re "(") (re.++ (re.+ ((_ re.capture 1) (re.union (re.union (re.range "a" "z") (re.union (re.range "A" "Z") (re.union (re.range "0" "9") (str.to.re "_")))) (re.union (re.range "\u{0621}" "\u{064a}") (re.union (str.to.re "\u{20}") (re.union (str.to.re "\u{0b}") (re.union (str.to.re "\u{0a}") (re.union (str.to.re "\u{0d}") (re.union (str.to.re "\u{09}") (str.to.re "\u{0c}")))))))))) (re.++ (re.+ (str.to.re ")")) (re.++ (re.+ ((_ re.capture 2) (re.union (re.union (re.range "a" "z") (re.union (re.range "A" "Z") (re.union (re.range "0" "9") (str.to.re "_")))) (re.union (re.range "\u{0621}" "\u{064a}") (re.union (str.to.re "\u{20}") (re.union (str.to.re "\u{0b}") (re.union (str.to.re "\u{0a}") (re.union (str.to.re "\u{0d}") (re.union (str.to.re "\u{09}") (str.to.re "\u{0c}")))))))))) ((_ re.capture 3) (re.union (re.union (re.union (re.union (re.union (re.++ (re.range "\x01" "\xff") (re.++ (str.to.re "j") (re.++ (str.to.re "p") (str.to.re "g")))) (re.++ (re.range "\x01" "\xff") (re.++ (str.to.re "J") (re.++ (str.to.re "P") (str.to.re "G"))))) (re.++ (re.range "\x01" "\xff") (re.++ (str.to.re "g") (re.++ (str.to.re "i") (str.to.re "f"))))) (re.++ (re.range "\x01" "\xff") (re.++ (str.to.re "G") (re.++ (str.to.re "I") (str.to.re "F"))))) (re.++ (re.range "\x01" "\xff") (re.++ (str.to.re "B") (re.++ (str.to.re "N") (str.to.re "G"))))) (re.++ (re.range "\x01" "\xff") (re.++ (str.to.re "b") (re.++ (str.to.re "n") (str.to.re "g"))))))))))))) re.end-anchor))))	; match == null
(check-sat)
(get-model)
(pop 1)
(exit)
